param K := 10;
param eps := 0.05;

set Ct:= SC1 SC2 SC3 SC4 SC5;
set M := MS1_1 MS1_2 MS1_3 MS1_4 MS1_5 MS2_1 MS2_2 MS2_3 MS2_4 MS2_5 MS3_1 MS3_2 MS3_3 MS3_4 MS3_5 MS4_1 MS4_2 MS4_3 MS4_4 MS4_5 MS5_1 MS5_2 MS5_3 MS5_4 MS5_5;
set F := F1 F2 F3 F4 F5 F6 F7 F8 F9 F10;
set C["SC1"] := MS1_1 MS1_2 MS1_3 MS1_4 MS1_5;
set C["SC2"] := MS2_1 MS2_2 MS2_3 MS2_4 MS2_5;
set C["SC3"] := MS3_1 MS3_2 MS3_3 MS3_4 MS3_5;
set C["SC4"] := MS4_1 MS4_2 MS4_3 MS4_4 MS4_5;
set C["SC5"] := MS5_1 MS5_2 MS5_3 MS5_4 MS5_5;

param:      lm      Sm      Om      :=
MS1_1       0.1       2.3676272276612966      2.3676272276612966
MS1_2       0.1       0.48867268621747684      0.48867268621747684
MS1_3       0.1       2.07101903002916      2.07101903002916
MS1_4       0.1       3.7759854046314887      3.7759854046314887
MS1_5       0.1       1.2966956514605776      1.2966956514605776
MS2_1       0.1       1.5845057832597154      1.5845057832597154
MS2_2       0.1       3.2551054415571703      3.2551054415571703
MS2_3       0.1       2.253328363821163      2.253328363821163
MS2_4       0.1       2.4034831964335863      2.4034831964335863
MS2_5       0.1       0.5035772149283648      0.5035772149283648
MS3_1       0.1       1.056736452188941      1.056736452188941
MS3_2       0.1       4.690977767845532      4.690977767845532
MS3_3       0.1       2.823377265400148      2.823377265400148
MS3_4       0.1       0.6648804598881561      0.6648804598881561
MS3_5       0.1       0.7640280546772225      0.7640280546772225
MS4_1       0.1       2.860318048448539      2.860318048448539
MS4_2       0.1       0.773555603918914      0.773555603918914
MS4_3       0.1       2.656584175974367      2.656584175974367
MS4_4       0.1       0.976332606831428      0.976332606831428
MS4_5       0.1       2.733209564826752      2.733209564826752
MS5_1       0.1       0.05725841566181389      0.05725841566181389
MS5_2       0.1       4.234529996490398      4.234529996490398
MS5_3       0.1       3.075513394724699      3.075513394724699
MS5_4       0.1       1.5128273154706608      1.5128273154706608
MS5_5       0.1       1.1198708776524278      1.1198708776524278
;

param:  lc  :=
SC1   0.1
SC2   0.1
SC3   0.1
SC4   0.1
SC5   0.1
;

param   P   :=
 F1  1.0
 F2  1.0
 F3  1.0
 F4  1.0
 F5  1.0
 F6  1.0
 F7  1.0
 F8  1.0
 F9  1.0
 F10  1.0
;

param   o:    MS1_1    MS1_2    MS1_3    MS1_4    MS1_5    MS2_1    MS2_2    MS2_3    MS2_4    MS2_5    MS3_1    MS3_2    MS3_3    MS3_4    MS3_5    MS4_1    MS4_2    MS4_3    MS4_4    MS4_5    MS5_1    MS5_2    MS5_3    MS5_4    MS5_5    :=
    MS1_1    0    0    0    0    0    0    0    0    0    0    0    0    0    0    0    0    0    0    0    0    0    0    0    0    0
    MS1_2    1    0    0    0    0    0    0    0    0    0    0    0    0    0    0    0    0    0    0    0    0    0    0    0    0
    MS1_3    0    1    0    0    0    0    0    0    0    0    0    0    0    0    0    0    0    0    0    0    0    0    0    0    0
    MS1_4    0    0    1    0    0    0    0    0    0    0    0    0    0    0    0    0    0    0    0    0    0    0    0    0    0
    MS1_5    0    0    0    1    0    0    0    0    0    0    0    0    0    0    0    0    0    0    0    0    0    0    0    0    0
    MS2_1    0    0    0    0    0    0    0    0    0    0    0    0    0    0    0    0    0    0    0    0    0    0    0    0    0
    MS2_2    0    0    0    0    0    1    0    0    0    0    0    0    0    0    0    0    0    0    0    0    0    0    0    0    0
    MS2_3    0    0    0    0    0    0    1    0    0    0    0    0    0    0    0    0    0    0    0    0    0    0    0    0    0
    MS2_4    0    0    0    0    0    0    0    1    0    0    0    0    0    0    0    0    0    0    0    0    0    0    0    0    0
    MS2_5    0    0    0    0    0    0    0    0    1    0    0    0    0    0    0    0    0    0    0    0    0    0    0    0    0
    MS3_1    0    0    0    0    0    0    0    0    0    0    0    0    0    0    0    0    0    0    0    0    0    0    0    0    0
    MS3_2    0    0    0    0    0    0    0    0    0    0    1    0    0    0    0    0    0    0    0    0    0    0    0    0    0
    MS3_3    0    0    0    0    0    0    0    0    0    0    0    1    0    0    0    0    0    0    0    0    0    0    0    0    0
    MS3_4    0    0    0    0    0    0    0    0    0    0    0    0    1    0    0    0    0    0    0    0    0    0    0    0    0
    MS3_5    0    0    0    0    0    0    0    0    0    0    0    0    0    1    0    0    0    0    0    0    0    0    0    0    0
    MS4_1    0    0    0    0    0    0    0    0    0    0    0    0    0    0    0    0    0    0    0    0    0    0    0    0    0
    MS4_2    0    0    0    0    0    0    0    0    0    0    0    0    0    0    0    1    0    0    0    0    0    0    0    0    0
    MS4_3    0    0    0    0    0    0    0    0    0    0    0    0    0    0    0    0    1    0    0    0    0    0    0    0    0
    MS4_4    0    0    0    0    0    0    0    0    0    0    0    0    0    0    0    0    0    1    0    0    0    0    0    0    0
    MS4_5    0    0    0    0    0    0    0    0    0    0    0    0    0    0    0    0    0    0    1    0    0    0    0    0    0
    MS5_1    0    0    0    0    0    0    0    0    0    0    0    0    0    0    0    0    0    0    0    0    0    0    0    0    0
    MS5_2    0    0    0    0    0    0    0    0    0    0    0    0    0    0    0    0    0    0    0    0    1    0    0    0    0
    MS5_3    0    0    0    0    0    0    0    0    0    0    0    0    0    0    0    0    0    0    0    0    0    1    0    0    0
    MS5_4    0    0    0    0    0    0    0    0    0    0    0    0    0    0    0    0    0    0    0    0    0    0    1    0    0
    MS5_5    0    0    0    0    0    0    0    0    0    0    0    0    0    0    0    0    0    0    0    0    0    0    0    1    0
;

param   d:    F1    F2    F3    F4    F5    F6    F7    F8    F9    F10    :=
    F1    0.0    2.5408749511376616    1.761470106973686    1.689079601133398    2.2535327494047537    1.6824399249462079    1.8809278052710383    1.7935363795378247    2.311162544286423    2.311162544286423
    F2    2.5408749511376616    0.0    2.2849408700953613    2.098927472795423    2.000648586447754    2.0439532503826943    1.8039390222822609    2.311162544286423    2.1681581940409904    2.1681581940409904
    F3    1.761470106973686    2.2849408700953613    0.0    1.738013335549834    1.735583913187735    2.1466063478872757    1.7935363795378247    2.1681581940409904    2.033784361480037    2.033784361480037
    F4    1.689079601133398    2.098927472795423    1.738013335549834    0.0    2.2513401955433467    1.8809278052710383    2.311162544286423    2.033784361480037    1.4909793566579765    1.4909793566579765
    F5    2.2535327494047537    2.000648586447754    1.735583913187735    2.2513401955433467    0.0    1.8039390222822609    2.1681581940409904    1.4909793566579765    2.2620714629372327    2.2620714629372327
    F6    1.6824399249462079    2.0439532503826943    2.1466063478872757    1.8809278052710383    1.8039390222822609    0.0    2.033784361480037    2.2620714629372327    1.6148699745284014    1.6148699745284014
    F7    1.8809278052710383    1.8039390222822609    1.7935363795378247    2.311162544286423    2.1681581940409904    2.033784361480037    0.0    1.6148699745284014    1.7017734163793474    1.7017734163793474
    F8    1.7935363795378247    2.311162544286423    2.1681581940409904    2.033784361480037    1.4909793566579765    2.2620714629372327    1.6148699745284014    0.0    2.073191147190995    2.073191147190995
    F9    2.311162544286423    2.1681581940409904    2.033784361480037    1.4909793566579765    2.2620714629372327    1.6148699745284014    1.7017734163793474    2.073191147190995    0.0    1.8909078434015874
    F10    2.311162544286423    2.1681581940409904    2.033784361480037    1.4909793566579765    2.2620714629372327    1.6148699745284014    1.7017734163793474    2.073191147190995    1.8909078434015874    0.0
;